67816782197831906785013,9,1,2,01,7,1,2,01,15,1,2,06,3,1,2,03,5,1,2,05,13,1,2,013,9,1,2,01,3,1,2,03,14,1,2,07,14,1,2,03,15,1,2,010,11,1,2,013,7,1,2,013,7,1,2,09,9,1,2,01,14,1,2,015,4,1,2,02,4,1,2,06,11,1,2,01,5,1,2,012,4,1,2,06,8,1,2,011,15,1,2,07,4,1,2,04,5,1,2,08,3,1,2,06,5,1,2,01,7,1,2,06,5,1,2,08,9,1,2,08,10,1,2,012,12,1,2,01,8,1,2,010,1,1,2,06,4,1,2,07,2,1,2,014,6,1,2,07,6,1,2,04,4,1,2,08,6,1,2,012,14,1,2,02,4,1,2,03,6,1,2,014,11,1,2,02,7,1,2,012,15,1,2,014,1,1,2,05,7,1,2,02,2,1,2,014,10,1,2,0